p cnf 495 2092
-28 -34 1 -27 -36 0
6 12 28 13 17 0
14 -13 33 11 -45 0
-32 38 -15 35 -19 0
50 27 12 -8 -33 0
-11 -12 -30 15 50 0
27 44 8 -9 -42 0
-43 33 -30 32 10 0
-13 -44 9 27 30 0
39 37 -7 42 -9 0
-42 -12 19 44 22 0
-35 43 -22 7 -50 0
28 -26 16 -18 -14 0
4 12 -33 -26 -43 0
40 26 -17 -13 -41 0
-1 38 -8 -24 31 0
-22 33 -38 3 -32 0
-50 -18 -20 -32 15 0
-16 -38 6 -25 -37 0
4 34 44 8 -10 0
49 -44 16 -28 2 0
-5 -50 -44 -46 4 0
40 22 -37 3 -20 0
-43 9 -26 13 -8 0
36 41 -18 10 -17 0
16 20 8 30 43 0
48 33 12 -28 -23 0
39 -27 20 17 -10 0
-38 4 -10 -39 -26 0
-46 3 34 -43 -2 0
28 42 -34 6 38 0
-40 9 35 3 -26 0
46 -30 8 9 27 0
-2 -43 -34 7 4 0
24 -50 -11 14 -23 0
-20 -36 48 45 -9 0
39 24 25 14 32 0
-30 -40 49 21 -15 0
-20 -36 46 -41 26 0
-48 -15 -42 -32 -41 0
-30 16 27 -24 19 0
41 -24 48 -38 -31 0
26 -44 -4 27 50 0
13 15 22 33 1 0
28 45 38 37 -12 0
35 -16 -19 -1 -10 0
40 2 -38 17 18 0
-28 -19 3 -18 30 0
-6 -41 5 30 37 0
44 -8 -12 -31 -13 0
42 15 11 25 -16 0
29 46 -17 44 41 0
31 -37 -14 27 -1 0
-42 32 39 28 46 0
14 37 -17 -1 -34 0
10 16 9 11 18 0
19 -26 -27 16 34 0
-9 -19 -34 -24 31 0
41 9 2 -35 24 0
34 6 22 -50 -21 0
-45 3 -37 29 2 0
-26 31 24 42 18 0
46 37 11 35 5 0
-44 12 -5 28 -40 0
1 -32 41 -29 45 0
31 -29 48 -13 -33 0
6 8 -18 19 7 0
10 16 -23 -13 -6 0
25 38 -45 14 6 0
28 24 44 -14 -36 0
-1 20 -23 4 34 0
27 -48 1 -16 -9 0
1 -4 -44 37 2 0
21 -31 -40 42 -35 0
34 7 -26 -32 -2 0
-26 3 -9 -37 -25 0
-23 19 -48 -22 -45 0
-25 -36 -29 37 -35 0
4 44 15 37 -30 0
50 9 -44 26 30 0
43 11 -31 1 -7 0
49 38 -40 11 2 0
-7 -21 -30 -45 33 0
-29 1 16 -6 31 0
19 -11 50 12 46 0
-50 28 -44 -45 12 0
47 -19 6 24 13 0
-27 -13 24 -4 45 0
39 -17 -37 -42 38 0
3 -14 -37 43 30 0
-7 12 -13 9 -30 0
-11 26 49 -4 -14 0
48 14 -29 -6 10 0
46 -13 10 -2 -25 0
-33 26 36 22 19 0
-18 48 16 -15 7 0
-17 50 13 49 -22 0
19 -25 -12 38 26 0
-25 -21 32 14 9 0
30 43 -19 37 -12 0
-24 -43 -1 9 37 0
-17 -20 -40 4 -28 0
21 -41 -25 -40 -48 0
-31 -17 -11 -42 1 0
-50 17 -38 49 10 0
-12 -48 -39 16 -44 0
-36 44 -14 13 37 0
19 -32 -33 -28 5 0
-44 27 -19 25 33 0
-44 6 -27 -7 47 0
-25 36 -37 -44 -31 0
8 25 46 49 -1 0
11 46 1 21 -14 0
11 43 45 29 -50 0
12 49 44 17 -7 0
-28 -9 30 -17 -18 0
-14 6 16 -10 25 0
-14 15 4 42 -46 0
-42 -16 -7 31 2 0
36 49 -26 -20 39 0
31 -13 23 47 14 0
2 -8 -40 -17 49 0
-10 34 15 27 -48 0
9 49 30 16 -50 0
1 -21 -13 -47 -45 0
3 41 1 21 -27 0
14 37 11 -38 34 0
8 -5 -19 -34 26 0
-23 -21 -13 41 30 0
28 -49 21 -32 -12 0
-8 -4 -19 -21 -17 0
-47 12 46 -7 -37 0
36 31 25 -27 46 0
-11 -24 -48 -1 -30 0
-40 33 49 -50 32 0
3 -32 -31 -38 -9 0
12 43 24 26 8 0
3 -9 -25 -17 -46 0
-23 -31 32 42 -18 0
-35 -11 19 -42 20 0
44 -34 48 -14 -37 0
-34 -12 33 35 -3 0
-14 43 -11 19 -13 0
-45 13 20 -19 -43 0
-44 43 14 -6 50 0
34 -19 -18 17 41 0
-41 -35 -22 -20 -50 0
50 29 41 -27 39 0
48 -43 -18 -8 23 0
9 -38 30 -32 49 0
-39 -26 -12 -35 -40 0
-9 -27 -41 40 -46 0
-5 2 37 35 39 0
1 49 26 12 -39 0
4 -23 49 -39 -17 0
9 45 44 -16 -22 0
10 -19 -13 -30 -47 0
-40 18 -7 -44 -47 0
-44 -37 26 48 49 0
-39 38 -31 35 -9 0
-3 -31 -17 -2 28 0
-44 20 -49 -39 -42 0
30 -47 -16 -2 -22 0
21 27 6 14 -44 0
-10 1 -50 27 14 0
-50 -21 -41 -48 -26 0
-27 42 7 49 30 0
-46 -9 11 -13 44 0
-37 48 -12 -6 43 0
37 24 45 14 20 0
49 -46 28 44 2 0
20 36 -49 14 25 0
-15 -44 26 -8 -9 0
28 -50 -3 17 14 0
3 11 -23 -25 -48 0
34 26 -30 -10 20 0
49 -21 4 -16 1 0
-14 26 31 -29 -32 0
-27 25 -21 -32 -2 0
-44 -37 7 -13 -3 0
-26 22 -15 29 -23 0
10 38 -29 33 -48 0
-39 -31 7 4 -14 0
-25 34 -46 -50 -6 0
-44 -23 -7 14 -1 0
-30 32 -5 39 -17 0
33 -29 -3 9 -36 0
-16 9 -33 39 -38 0
-30 16 2 45 34 0
-21 49 11 31 -32 0
-11 16 -8 -39 -19 0
35 -8 -27 14 29 0
32 29 -35 -19 -25 0
-11 16 4 -13 -28 0
-24 -39 -34 16 42 0
50 21 5 2 -34 0
34 14 13 -28 21 0
19 -37 -3 -2 28 0
2 -24 -18 -41 -36 0
-33 -49 27 -42 35 0
36 15 1 31 -20 0
-35 48 -21 -10 11 0
-31 -39 -21 -2 18 0
-48 44 -30 -1 25 0
42 4 34 41 -7 0
12 -13 36 -44 47 0
-26 -30 -25 -39 -27 0
-11 20 -19 6 -49 0
-4 -3 46 -10 34 0
30 48 39 -7 -19 0
-35 -9 47 -34 30 0
28 25 -1 46 17 0
22 -12 -28 -24 41 0
46 19 20 -26 -39 0
-6 -10 -20 -12 -50 0
45 2 -24 39 10 0
-49 -22 -47 50 -18 0
14 -2 -41 -15 46 0
-20 18 -3 -41 -26 0
-40 2 37 50 -41 0
15 -26 29 33 -40 0
-10 -46 -5 40 -50 0
12 31 30 -8 -50 0
3 -11 48 21 19 0
37 -15 45 20 46 0
36 -9 47 37 30 0
35 -21 -4 -15 -30 0
-21 31 14 32 16 0
29 19 -49 -35 40 0
25 -48 -11 43 20 0
-13 -16 6 -37 -39 0
-45 -4 -35 -11 12 0
-31 -29 -1 -40 -26 0
-28 33 -12 35 32 0
21 38 36 -26 31 0
34 22 -21 1 -30 0
-44 -45 -27 -20 1 0
47 24 -40 -49 43 0
31 -1 39 18 3 0
45 17 -11 24 9 0
42 20 18 14 -16 0
-29 -21 -50 2 -25 0
-19 35 6 4 -13 0
11 -15 -48 29 -22 0
-25 -39 3 42 45 0
50 -3 -10 26 -21 0
-18 22 7 -2 17 0
-27 -34 -18 17 42 0
27 14 -8 18 46 0
44 -17 31 26 35 0
3 8 51 0
-3 8 -51 0
3 -8 -51 0
-3 -8 51 0
-10 11 52 0
10 11 -52 0
-10 -11 -52 0
10 -11 52 0
-12 15 53 0
12 15 -53 0
-12 -15 -53 0
12 -15 53 0
-16 -17 54 0
16 -17 -54 0
-16 17 -54 0
16 17 54 0
18 -20 55 0
-18 -20 -55 0
18 20 -55 0
-18 20 55 0
21 22 56 0
-21 22 -56 0
21 -22 -56 0
-21 -22 56 0
25 -28 57 0
-25 -28 -57 0
25 28 -57 0
-25 28 57 0
30 -31 58 0
-30 -31 -58 0
30 31 -58 0
-30 31 58 0
-32 34 59 0
32 34 -59 0
-32 -34 -59 0
32 -34 59 0
-35 -36 60 0
35 -36 -60 0
-35 36 -60 0
35 36 60 0
43 44 61 0
-43 44 -61 0
43 -44 -61 0
-43 -44 61 0
50 -51 62 0
-50 -51 -62 0
50 51 -62 0
-50 51 62 0
52 -53 63 0
-52 -53 -63 0
52 53 -63 0
-52 53 63 0
54 -55 64 0
-54 -55 -64 0
54 55 -64 0
-54 55 64 0
56 -57 65 0
-56 -57 -65 0
56 57 -65 0
-56 57 65 0
58 -59 66 0
-58 -59 -66 0
58 59 -66 0
-58 59 66 0
60 -61 67 0
-60 -61 -67 0
60 61 -67 0
-60 61 67 0
62 -63 68 0
-62 -63 -68 0
62 63 -68 0
-62 63 68 0
64 -65 69 0
-64 -65 -69 0
64 65 -69 0
-64 65 69 0
66 -67 70 0
-66 -67 -70 0
66 67 -70 0
-66 67 70 0
-68 -69 70 0
68 -69 -70 0
-68 69 -70 0
68 69 70 0
-2 -4 71 0
2 -4 -71 0
-2 4 -71 0
2 4 71 0
5 -6 72 0
-5 -6 -72 0
5 6 -72 0
-5 6 72 0
-9 -10 73 0
9 -10 -73 0
-9 10 -73 0
9 10 73 0
12 -16 74 0
-12 -16 -74 0
12 16 -74 0
-12 16 74 0
18 -25 75 0
-18 -25 -75 0
18 25 -75 0
-18 25 75 0
29 30 76 0
-29 30 -76 0
29 -30 -76 0
-29 -30 76 0
32 -33 77 0
-32 -33 -77 0
32 33 -77 0
-32 33 77 0
34 37 78 0
-34 37 -78 0
34 -37 -78 0
-34 -37 78 0
38 39 79 0
-38 39 -79 0
38 -39 -79 0
-38 -39 79 0
42 43 80 0
-42 43 -80 0
42 -43 -80 0
-42 -43 80 0
45 -48 81 0
-45 -48 -81 0
45 48 -81 0
-45 48 81 0
70 -71 82 0
-70 -71 -82 0
70 71 -82 0
-70 71 82 0
72 -73 83 0
-72 -73 -83 0
72 73 -83 0
-72 73 83 0
74 -75 84 0
-74 -75 -84 0
74 75 -84 0
-74 75 84 0
76 -77 85 0
-76 -77 -85 0
76 77 -85 0
-76 77 85 0
78 -79 86 0
-78 -79 -86 0
78 79 -86 0
-78 79 86 0
80 -81 87 0
-80 -81 -87 0
80 81 -87 0
-80 81 87 0
82 -83 88 0
-82 -83 -88 0
82 83 -88 0
-82 83 88 0
84 -85 89 0
-84 -85 -89 0
84 85 -89 0
-84 85 89 0
86 -87 90 0
-86 -87 -90 0
86 87 -90 0
-86 87 90 0
-88 -89 90 0
88 -89 -90 0
-88 89 -90 0
88 89 90 0
-4 6 91 0
4 6 -91 0
-4 -6 -91 0
4 -6 91 0
12 -13 92 0
-12 -13 -92 0
12 13 -92 0
-12 13 92 0
-16 18 93 0
16 18 -93 0
-16 -18 -93 0
16 -18 93 0
22 -23 94 0
-22 -23 -94 0
22 23 -94 0
-22 23 94 0
24 25 95 0
-24 25 -95 0
24 -25 -95 0
-24 -25 95 0
26 27 96 0
-26 27 -96 0
26 -27 -96 0
-26 -27 96 0
-33 -39 97 0
33 -39 -97 0
-33 39 -97 0
33 39 97 0
-40 41 98 0
40 41 -98 0
-40 -41 -98 0
40 -41 98 0
42 43 99 0
-42 43 -99 0
42 -43 -99 0
-42 -43 99 0
-46 -47 100 0
46 -47 -100 0
-46 47 -100 0
46 47 100 0
-49 -50 101 0
49 -50 -101 0
-49 50 -101 0
49 50 101 0
91 -92 102 0
-91 -92 -102 0
91 92 -102 0
-91 92 102 0
93 -94 103 0
-93 -94 -103 0
93 94 -103 0
-93 94 103 0
95 -96 104 0
-95 -96 -104 0
95 96 -104 0
-95 96 104 0
97 -98 105 0
-97 -98 -105 0
97 98 -105 0
-97 98 105 0
99 -100 106 0
-99 -100 -106 0
99 100 -106 0
-99 100 106 0
101 -102 107 0
-101 -102 -107 0
101 102 -107 0
-101 102 107 0
103 -104 108 0
-103 -104 -108 0
103 104 -108 0
-103 104 108 0
105 -106 109 0
-105 -106 -109 0
105 106 -109 0
-105 106 109 0
-107 -108 109 0
107 -108 -109 0
-107 108 -109 0
107 108 109 0
-1 -3 110 0
1 -3 -110 0
-1 3 -110 0
1 3 110 0
6 -8 111 0
-6 -8 -111 0
6 8 -111 0
-6 8 111 0
-14 18 112 0
14 18 -112 0
-14 -18 -112 0
14 -18 112 0
-19 -21 113 0
19 -21 -113 0
-19 21 -113 0
19 21 113 0
22 -26 114 0
-22 -26 -114 0
22 26 -114 0
-22 26 114 0
-27 -28 115 0
27 -28 -115 0
-27 28 -115 0
27 28 115 0
29 -30 116 0
-29 -30 -116 0
29 30 -116 0
-29 30 116 0
-31 -32 117 0
31 -32 -117 0
-31 32 -117 0
31 32 117 0
-33 -35 118 0
33 -35 -118 0
-33 35 -118 0
33 35 118 0
37 42 119 0
-37 42 -119 0
37 -42 -119 0
-37 -42 119 0
109 -110 120 0
-109 -110 -120 0
109 110 -120 0
-109 110 120 0
111 -112 121 0
-111 -112 -121 0
111 112 -121 0
-111 112 121 0
113 -114 122 0
-113 -114 -122 0
113 114 -122 0
-113 114 122 0
115 -116 123 0
-115 -116 -123 0
115 116 -123 0
-115 116 123 0
117 -118 124 0
-117 -118 -124 0
117 118 -124 0
-117 118 124 0
119 -120 125 0
-119 -120 -125 0
119 120 -125 0
-119 120 125 0
121 -122 126 0
-121 -122 -126 0
121 122 -126 0
-121 122 126 0
123 -124 127 0
-123 -124 -127 0
123 124 -127 0
-123 124 127 0
-125 -126 127 0
125 -126 -127 0
-125 126 -127 0
125 126 127 0
-2 -3 128 0
2 -3 -128 0
-2 3 -128 0
2 3 128 0
6 7 129 0
-6 7 -129 0
6 -7 -129 0
-6 -7 129 0
-11 12 130 0
11 12 -130 0
-11 -12 -130 0
11 -12 130 0
14 -18 131 0
-14 -18 -131 0
14 18 -131 0
-14 18 131 0
19 -21 132 0
-19 -21 -132 0
19 21 -132 0
-19 21 132 0
22 23 133 0
-22 23 -133 0
22 -23 -133 0
-22 -23 133 0
-24 28 134 0
24 28 -134 0
-24 -28 -134 0
24 -28 134 0
29 30 135 0
-29 30 -135 0
29 -30 -135 0
-29 -30 135 0
32 -33 136 0
-32 -33 -136 0
32 33 -136 0
-32 33 136 0
35 -36 137 0
-35 -36 -137 0
35 36 -137 0
-35 36 137 0
-38 -43 138 0
38 -43 -138 0
-38 43 -138 0
38 43 138 0
-45 46 139 0
45 46 -139 0
-45 -46 -139 0
45 -46 139 0
128 -129 140 0
-128 -129 -140 0
128 129 -140 0
-128 129 140 0
130 -131 141 0
-130 -131 -141 0
130 131 -141 0
-130 131 141 0
132 -133 142 0
-132 -133 -142 0
132 133 -142 0
-132 133 142 0
134 -135 143 0
-134 -135 -143 0
134 135 -143 0
-134 135 143 0
136 -137 144 0
-136 -137 -144 0
136 137 -144 0
-136 137 144 0
138 -139 145 0
-138 -139 -145 0
138 139 -145 0
-138 139 145 0
140 -141 146 0
-140 -141 -146 0
140 141 -146 0
-140 141 146 0
142 -143 147 0
-142 -143 -147 0
142 143 -147 0
-142 143 147 0
144 -145 148 0
-144 -145 -148 0
144 145 -148 0
-144 145 148 0
-146 -147 148 0
146 -147 -148 0
-146 147 -148 0
146 147 148 0
1 3 149 0
-1 3 -149 0
1 -3 -149 0
-1 -3 149 0
-4 5 150 0
4 5 -150 0
-4 -5 -150 0
4 -5 150 0
-8 9 151 0
8 9 -151 0
-8 -9 -151 0
8 -9 151 0
10 -13 152 0
-10 -13 -152 0
10 13 -152 0
-10 13 152 0
14 15 153 0
-14 15 -153 0
14 -15 -153 0
-14 -15 153 0
-16 17 154 0
16 17 -154 0
-16 -17 -154 0
16 -17 154 0
20 -22 155 0
-20 -22 -155 0
20 22 -155 0
-20 22 155 0
24 -27 156 0
-24 -27 -156 0
24 27 -156 0
-24 27 156 0
28 -29 157 0
-28 -29 -157 0
28 29 -157 0
-28 29 157 0
-30 32 158 0
30 32 -158 0
-30 -32 -158 0
30 -32 158 0
-33 34 159 0
33 34 -159 0
-33 -34 -159 0
33 -34 159 0
38 -39 160 0
-38 -39 -160 0
38 39 -160 0
-38 39 160 0
41 47 161 0
-41 47 -161 0
41 -47 -161 0
-41 -47 161 0
148 -149 162 0
-148 -149 -162 0
148 149 -162 0
-148 149 162 0
150 -151 163 0
-150 -151 -163 0
150 151 -163 0
-150 151 163 0
152 -153 164 0
-152 -153 -164 0
152 153 -164 0
-152 153 164 0
154 -155 165 0
-154 -155 -165 0
154 155 -165 0
-154 155 165 0
156 -157 166 0
-156 -157 -166 0
156 157 -166 0
-156 157 166 0
158 -159 167 0
-158 -159 -167 0
158 159 -167 0
-158 159 167 0
160 -161 168 0
-160 -161 -168 0
160 161 -168 0
-160 161 168 0
162 -163 169 0
-162 -163 -169 0
162 163 -169 0
-162 163 169 0
164 -165 170 0
-164 -165 -170 0
164 165 -170 0
-164 165 170 0
166 -167 171 0
-166 -167 -171 0
166 167 -171 0
-166 167 171 0
168 -169 172 0
-168 -169 -172 0
168 169 -172 0
-168 169 172 0
170 -171 173 0
-170 -171 -173 0
170 171 -173 0
-170 171 173 0
172 173 0
-172 -173 0
1 4 174 0
-1 4 -174 0
1 -4 -174 0
-1 -4 174 0
5 -6 175 0
-5 -6 -175 0
5 6 -175 0
-5 6 175 0
-7 8 176 0
7 8 -176 0
-7 -8 -176 0
7 -8 176 0
9 -10 177 0
-9 -10 -177 0
9 10 -177 0
-9 10 177 0
11 -12 178 0
-11 -12 -178 0
11 12 -178 0
-11 12 178 0
-13 -15 179 0
13 -15 -179 0
-13 15 -179 0
13 15 179 0
19 -20 180 0
-19 -20 -180 0
19 20 -180 0
-19 20 180 0
21 -24 181 0
-21 -24 -181 0
21 24 -181 0
-21 24 181 0
-25 -26 182 0
25 -26 -182 0
-25 26 -182 0
25 26 182 0
30 -32 183 0
-30 -32 -183 0
30 32 -183 0
-30 32 183 0
-33 34 184 0
33 34 -184 0
-33 -34 -184 0
33 -34 184 0
-35 38 185 0
35 38 -185 0
-35 -38 -185 0
35 -38 185 0
40 42 186 0
-40 42 -186 0
40 -42 -186 0
-40 -42 186 0
-43 -46 187 0
43 -46 -187 0
-43 46 -187 0
43 46 187 0
47 -48 188 0
-47 -48 -188 0
47 48 -188 0
-47 48 188 0
-49 50 189 0
49 50 -189 0
-49 -50 -189 0
49 -50 189 0
174 -175 190 0
-174 -175 -190 0
174 175 -190 0
-174 175 190 0
176 -177 191 0
-176 -177 -191 0
176 177 -191 0
-176 177 191 0
178 -179 192 0
-178 -179 -192 0
178 179 -192 0
-178 179 192 0
180 -181 193 0
-180 -181 -193 0
180 181 -193 0
-180 181 193 0
182 -183 194 0
-182 -183 -194 0
182 183 -194 0
-182 183 194 0
184 -185 195 0
-184 -185 -195 0
184 185 -195 0
-184 185 195 0
186 -187 196 0
-186 -187 -196 0
186 187 -196 0
-186 187 196 0
188 -189 197 0
-188 -189 -197 0
188 189 -197 0
-188 189 197 0
190 -191 198 0
-190 -191 -198 0
190 191 -198 0
-190 191 198 0
192 -193 199 0
-192 -193 -199 0
192 193 -199 0
-192 193 199 0
194 -195 200 0
-194 -195 -200 0
194 195 -200 0
-194 195 200 0
196 -197 201 0
-196 -197 -201 0
196 197 -201 0
-196 197 201 0
198 -199 202 0
-198 -199 -202 0
198 199 -202 0
-198 199 202 0
200 -201 203 0
-200 -201 -203 0
200 201 -203 0
-200 201 203 0
202 203 0
-202 -203 0
1 -2 204 0
-1 -2 -204 0
1 2 -204 0
-1 2 204 0
-3 -7 205 0
3 -7 -205 0
-3 7 -205 0
3 7 205 0
8 -9 206 0
-8 -9 -206 0
8 9 -206 0
-8 9 206 0
10 -13 207 0
-10 -13 -207 0
10 13 -207 0
-10 13 207 0
14 -15 208 0
-14 -15 -208 0
14 15 -208 0
-14 15 208 0
17 20 209 0
-17 20 -209 0
17 -20 -209 0
-17 -20 209 0
21 -23 210 0
-21 -23 -210 0
21 23 -210 0
-21 23 210 0
26 30 211 0
-26 30 -211 0
26 -30 -211 0
-26 -30 211 0
-31 32 212 0
31 32 -212 0
-31 -32 -212 0
31 -32 212 0
-33 35 213 0
33 35 -213 0
-33 -35 -213 0
33 -35 213 0
-36 37 214 0
36 37 -214 0
-36 -37 -214 0
36 -37 214 0
-38 -39 215 0
38 -39 -215 0
-38 39 -215 0
38 39 215 0
-40 -42 216 0
40 -42 -216 0
-40 42 -216 0
40 42 216 0
43 44 217 0
-43 44 -217 0
43 -44 -217 0
-43 -44 217 0
-45 -48 218 0
45 -48 -218 0
-45 48 -218 0
45 48 218 0
203 -204 219 0
-203 -204 -219 0
203 204 -219 0
-203 204 219 0
205 -206 220 0
-205 -206 -220 0
205 206 -220 0
-205 206 220 0
207 -208 221 0
-207 -208 -221 0
207 208 -221 0
-207 208 221 0
209 -210 222 0
-209 -210 -222 0
209 210 -222 0
-209 210 222 0
211 -212 223 0
-211 -212 -223 0
211 212 -223 0
-211 212 223 0
213 -214 224 0
-213 -214 -224 0
213 214 -224 0
-213 214 224 0
215 -216 225 0
-215 -216 -225 0
215 216 -225 0
-215 216 225 0
217 -218 226 0
-217 -218 -226 0
217 218 -226 0
-217 218 226 0
219 -220 227 0
-219 -220 -227 0
219 220 -227 0
-219 220 227 0
221 -222 228 0
-221 -222 -228 0
221 222 -228 0
-221 222 228 0
223 -224 229 0
-223 -224 -229 0
223 224 -229 0
-223 224 229 0
225 -226 230 0
-225 -226 -230 0
225 226 -230 0
-225 226 230 0
227 -228 231 0
-227 -228 -231 0
227 228 -231 0
-227 228 231 0
229 -230 232 0
-229 -230 -232 0
229 230 -232 0
-229 230 232 0
231 232 0
-231 -232 0
-1 -2 233 0
1 -2 -233 0
-1 2 -233 0
1 2 233 0
11 -15 234 0
-11 -15 -234 0
11 15 -234 0
-11 15 234 0
-16 -19 235 0
16 -19 -235 0
-16 19 -235 0
16 19 235 0
24 -25 236 0
-24 -25 -236 0
24 25 -236 0
-24 25 236 0
29 30 237 0
-29 30 -237 0
29 -30 -237 0
-29 -30 237 0
31 -33 238 0
-31 -33 -238 0
31 33 -238 0
-31 33 238 0
36 37 239 0
-36 37 -239 0
36 -37 -239 0
-36 -37 239 0
-38 -41 240 0
38 -41 -240 0
-38 41 -240 0
38 41 240 0
42 43 241 0
-42 43 -241 0
42 -43 -241 0
-42 -43 241 0
-44 45 242 0
44 45 -242 0
-44 -45 -242 0
44 -45 242 0
232 -233 243 0
-232 -233 -243 0
232 233 -243 0
-232 233 243 0
234 -235 244 0
-234 -235 -244 0
234 235 -244 0
-234 235 244 0
236 -237 245 0
-236 -237 -245 0
236 237 -245 0
-236 237 245 0
238 -239 246 0
-238 -239 -246 0
238 239 -246 0
-238 239 246 0
240 -241 247 0
-240 -241 -247 0
240 241 -247 0
-240 241 247 0
242 -243 248 0
-242 -243 -248 0
242 243 -248 0
-242 243 248 0
244 -245 249 0
-244 -245 -249 0
244 245 -249 0
-244 245 249 0
246 -247 250 0
-246 -247 -250 0
246 247 -250 0
-246 247 250 0
-248 -249 250 0
248 -249 -250 0
-248 249 -250 0
248 249 250 0
-2 5 251 0
2 5 -251 0
-2 -5 -251 0
2 -5 251 0
6 8 252 0
-6 8 -252 0
6 -8 -252 0
-6 -8 252 0
-10 11 253 0
10 11 -253 0
-10 -11 -253 0
10 -11 253 0
13 16 254 0
-13 16 -254 0
13 -16 -254 0
-13 -16 254 0
-18 20 255 0
18 20 -255 0
-18 -20 -255 0
18 -20 255 0
-21 -22 256 0
21 -22 -256 0
-21 22 -256 0
21 22 256 0
23 27 257 0
-23 27 -257 0
23 -27 -257 0
-23 -27 257 0
-34 36 258 0
34 36 -258 0
-34 -36 -258 0
34 -36 258 0
-37 -38 259 0
37 -38 -259 0
-37 38 -259 0
37 38 259 0
39 -40 260 0
-39 -40 -260 0
39 40 -260 0
-39 40 260 0
-43 46 261 0
43 46 -261 0
-43 -46 -261 0
43 -46 261 0
251 -252 262 0
-251 -252 -262 0
251 252 -262 0
-251 252 262 0
253 -254 263 0
-253 -254 -263 0
253 254 -263 0
-253 254 263 0
255 -256 264 0
-255 -256 -264 0
255 256 -264 0
-255 256 264 0
257 -258 265 0
-257 -258 -265 0
257 258 -265 0
-257 258 265 0
259 -260 266 0
-259 -260 -266 0
259 260 -266 0
-259 260 266 0
261 -262 267 0
-261 -262 -267 0
261 262 -267 0
-261 262 267 0
263 -264 268 0
-263 -264 -268 0
263 264 -268 0
-263 264 268 0
265 -266 269 0
-265 -266 -269 0
265 266 -269 0
-265 266 269 0
-267 -268 269 0
267 -268 -269 0
-267 268 -269 0
267 268 269 0
-2 -4 270 0
2 -4 -270 0
-2 4 -270 0
2 4 270 0
5 -7 271 0
-5 -7 -271 0
5 7 -271 0
-5 7 271 0
-8 9 272 0
8 9 -272 0
-8 -9 -272 0
8 -9 272 0
10 -11 273 0
-10 -11 -273 0
10 11 -273 0
-10 11 273 0
-13 14 274 0
13 14 -274 0
-13 -14 -274 0
13 -14 274 0
-15 16 275 0
15 16 -275 0
-15 -16 -275 0
15 -16 275 0
17 -18 276 0
-17 -18 -276 0
17 18 -276 0
-17 18 276 0
-21 22 277 0
21 22 -277 0
-21 -22 -277 0
21 -22 277 0
23 -24 278 0
-23 -24 -278 0
23 24 -278 0
-23 24 278 0
25 27 279 0
-25 27 -279 0
25 -27 -279 0
-25 -27 279 0
-29 -31 280 0
29 -31 -280 0
-29 31 -280 0
29 31 280 0
-33 34 281 0
33 34 -281 0
-33 -34 -281 0
33 -34 281 0
37 -40 282 0
-37 -40 -282 0
37 40 -282 0
-37 40 282 0
-41 -43 283 0
41 -43 -283 0
-41 43 -283 0
41 43 283 0
45 -46 284 0
-45 -46 -284 0
45 46 -284 0
-45 46 284 0
269 -270 285 0
-269 -270 -285 0
269 270 -285 0
-269 270 285 0
271 -272 286 0
-271 -272 -286 0
271 272 -286 0
-271 272 286 0
273 -274 287 0
-273 -274 -287 0
273 274 -287 0
-273 274 287 0
275 -276 288 0
-275 -276 -288 0
275 276 -288 0
-275 276 288 0
277 -278 289 0
-277 -278 -289 0
277 278 -289 0
-277 278 289 0
279 -280 290 0
-279 -280 -290 0
279 280 -290 0
-279 280 290 0
281 -282 291 0
-281 -282 -291 0
281 282 -291 0
-281 282 291 0
283 -284 292 0
-283 -284 -292 0
283 284 -292 0
-283 284 292 0
285 -286 293 0
-285 -286 -293 0
285 286 -293 0
-285 286 293 0
287 -288 294 0
-287 -288 -294 0
287 288 -294 0
-287 288 294 0
289 -290 295 0
-289 -290 -295 0
289 290 -295 0
-289 290 295 0
291 -292 296 0
-291 -292 -296 0
291 292 -296 0
-291 292 296 0
293 -294 297 0
-293 -294 -297 0
293 294 -297 0
-293 294 297 0
295 -296 298 0
-295 -296 -298 0
295 296 -298 0
-295 296 298 0
297 298 0
-297 -298 0
-1 4 299 0
1 4 -299 0
-1 -4 -299 0
1 -4 299 0
-5 7 300 0
5 7 -300 0
-5 -7 -300 0
5 -7 300 0
8 9 301 0
-8 9 -301 0
8 -9 -301 0
-8 -9 301 0
-12 13 302 0
12 13 -302 0
-12 -13 -302 0
12 -13 302 0
-15 -16 303 0
15 -16 -303 0
-15 16 -303 0
15 16 303 0
-21 23 304 0
21 23 -304 0
-21 -23 -304 0
21 -23 304 0
-24 25 305 0
24 25 -305 0
-24 -25 -305 0
24 -25 305 0
-30 -31 306 0
30 -31 -306 0
-30 31 -306 0
30 31 306 0
32 -37 307 0
-32 -37 -307 0
32 37 -307 0
-32 37 307 0
-38 40 308 0
38 40 -308 0
-38 -40 -308 0
38 -40 308 0
41 42 309 0
-41 42 -309 0
41 -42 -309 0
-41 -42 309 0
-43 45 310 0
43 45 -310 0
-43 -45 -310 0
43 -45 310 0
-46 47 311 0
46 47 -311 0
-46 -47 -311 0
46 -47 311 0
49 -50 312 0
-49 -50 -312 0
49 50 -312 0
-49 50 312 0
299 -300 313 0
-299 -300 -313 0
299 300 -313 0
-299 300 313 0
301 -302 314 0
-301 -302 -314 0
301 302 -314 0
-301 302 314 0
303 -304 315 0
-303 -304 -315 0
303 304 -315 0
-303 304 315 0
305 -306 316 0
-305 -306 -316 0
305 306 -316 0
-305 306 316 0
307 -308 317 0
-307 -308 -317 0
307 308 -317 0
-307 308 317 0
309 -310 318 0
-309 -310 -318 0
309 310 -318 0
-309 310 318 0
311 -312 319 0
-311 -312 -319 0
311 312 -319 0
-311 312 319 0
313 -314 320 0
-313 -314 -320 0
313 314 -320 0
-313 314 320 0
315 -316 321 0
-315 -316 -321 0
315 316 -321 0
-315 316 321 0
317 -318 322 0
-317 -318 -322 0
317 318 -322 0
-317 318 322 0
319 -320 323 0
-319 -320 -323 0
319 320 -323 0
-319 320 323 0
321 -322 324 0
-321 -322 -324 0
321 322 -324 0
-321 322 324 0
323 324 0
-323 -324 0
-1 -2 325 0
1 -2 -325 0
-1 2 -325 0
1 2 325 0
3 4 326 0
-3 4 -326 0
3 -4 -326 0
-3 -4 326 0
-9 -12 327 0
9 -12 -327 0
-9 12 -327 0
9 12 327 0
17 -18 328 0
-17 -18 -328 0
17 18 -328 0
-17 18 328 0
-21 -23 329 0
21 -23 -329 0
-21 23 -329 0
21 23 329 0
26 31 330 0
-26 31 -330 0
26 -31 -330 0
-26 -31 330 0
32 -39 331 0
-32 -39 -331 0
32 39 -331 0
-32 39 331 0
-40 -41 332 0
40 -41 -332 0
-40 41 -332 0
40 41 332 0
42 -45 333 0
-42 -45 -333 0
42 45 -333 0
-42 45 333 0
46 -49 334 0
-46 -49 -334 0
46 49 -334 0
-46 49 334 0
324 -325 335 0
-324 -325 -335 0
324 325 -335 0
-324 325 335 0
326 -327 336 0
-326 -327 -336 0
326 327 -336 0
-326 327 336 0
328 -329 337 0
-328 -329 -337 0
328 329 -337 0
-328 329 337 0
330 -331 338 0
-330 -331 -338 0
330 331 -338 0
-330 331 338 0
332 -333 339 0
-332 -333 -339 0
332 333 -339 0
-332 333 339 0
334 -335 340 0
-334 -335 -340 0
334 335 -340 0
-334 335 340 0
336 -337 341 0
-336 -337 -341 0
336 337 -341 0
-336 337 341 0
338 -339 342 0
-338 -339 -342 0
338 339 -342 0
-338 339 342 0
-340 -341 342 0
340 -341 -342 0
-340 341 -342 0
340 341 342 0
-2 -7 343 0
2 -7 -343 0
-2 7 -343 0
2 7 343 0
9 -18 344 0
-9 -18 -344 0
9 18 -344 0
-9 18 344 0
22 -23 345 0
-22 -23 -345 0
22 23 -345 0
-22 23 345 0
31 -33 346 0
-31 -33 -346 0
31 33 -346 0
-31 33 346 0
36 -37 347 0
-36 -37 -347 0
36 37 -347 0
-36 37 347 0
38 -40 348 0
-38 -40 -348 0
38 40 -348 0
-38 40 348 0
42 43 349 0
-42 43 -349 0
42 -43 -349 0
-42 -43 349 0
-44 -46 350 0
44 -46 -350 0
-44 46 -350 0
44 46 350 0
47 48 351 0
-47 48 -351 0
47 -48 -351 0
-47 -48 351 0
49 -50 352 0
-49 -50 -352 0
49 50 -352 0
-49 50 352 0
343 -344 353 0
-343 -344 -353 0
343 344 -353 0
-343 344 353 0
345 -346 354 0
-345 -346 -354 0
345 346 -354 0
-345 346 354 0
347 -348 355 0
-347 -348 -355 0
347 348 -355 0
-347 348 355 0
349 -350 356 0
-349 -350 -356 0
349 350 -356 0
-349 350 356 0
351 -352 357 0
-351 -352 -357 0
351 352 -357 0
-351 352 357 0
353 -354 358 0
-353 -354 -358 0
353 354 -358 0
-353 354 358 0
355 -356 359 0
-355 -356 -359 0
355 356 -359 0
-355 356 359 0
-357 -358 359 0
357 -358 -359 0
-357 358 -359 0
357 358 359 0
-3 -4 360 0
3 -4 -360 0
-3 4 -360 0
3 4 360 0
5 -7 361 0
-5 -7 -361 0
5 7 -361 0
-5 7 361 0
-8 -9 362 0
8 -9 -362 0
-8 9 -362 0
8 9 362 0
11 -12 363 0
-11 -12 -363 0
11 12 -363 0
-11 12 363 0
-13 16 364 0
13 16 -364 0
-13 -16 -364 0
13 -16 364 0
-19 20 365 0
19 20 -365 0
-19 -20 -365 0
19 -20 365 0
-24 -25 366 0
24 -25 -366 0
-24 25 -366 0
24 25 366 0
30 -32 367 0
-30 -32 -367 0
30 32 -367 0
-30 32 367 0
-33 -34 368 0
33 -34 -368 0
-33 34 -368 0
33 34 368 0
35 36 369 0
-35 36 -369 0
35 -36 -369 0
-35 -36 369 0
-38 -39 370 0
38 -39 -370 0
-38 39 -370 0
38 39 370 0
-40 -43 371 0
40 -43 -371 0
-40 43 -371 0
40 43 371 0
44 46 372 0
-44 46 -372 0
44 -46 -372 0
-44 -46 372 0
-47 -48 373 0
47 -48 -373 0
-47 48 -373 0
47 48 373 0
359 -360 374 0
-359 -360 -374 0
359 360 -374 0
-359 360 374 0
361 -362 375 0
-361 -362 -375 0
361 362 -375 0
-361 362 375 0
363 -364 376 0
-363 -364 -376 0
363 364 -376 0
-363 364 376 0
365 -366 377 0
-365 -366 -377 0
365 366 -377 0
-365 366 377 0
367 -368 378 0
-367 -368 -378 0
367 368 -378 0
-367 368 378 0
369 -370 379 0
-369 -370 -379 0
369 370 -379 0
-369 370 379 0
371 -372 380 0
-371 -372 -380 0
371 372 -380 0
-371 372 380 0
373 -374 381 0
-373 -374 -381 0
373 374 -381 0
-373 374 381 0
375 -376 382 0
-375 -376 -382 0
375 376 -382 0
-375 376 382 0
377 -378 383 0
-377 -378 -383 0
377 378 -383 0
-377 378 383 0
379 -380 384 0
-379 -380 -384 0
379 380 -384 0
-379 380 384 0
381 -382 385 0
-381 -382 -385 0
381 382 -385 0
-381 382 385 0
383 -384 386 0
-383 -384 -386 0
383 384 -386 0
-383 384 386 0
385 386 0
-385 -386 0
3 4 387 0
-3 4 -387 0
3 -4 -387 0
-3 -4 387 0
5 -8 388 0
-5 -8 -388 0
5 8 -388 0
-5 8 388 0
9 -10 389 0
-9 -10 -389 0
9 10 -389 0
-9 10 389 0
-12 -15 390 0
12 -15 -390 0
-12 15 -390 0
12 15 390 0
16 -18 391 0
-16 -18 -391 0
16 18 -391 0
-16 18 391 0
-19 -20 392 0
19 -20 -392 0
-19 20 -392 0
19 20 392 0
-21 -23 393 0
21 -23 -393 0
-21 23 -393 0
21 23 393 0
-25 -26 394 0
25 -26 -394 0
-25 26 -394 0
25 26 394 0
28 30 395 0
-28 30 -395 0
28 -30 -395 0
-28 -30 395 0
31 33 396 0
-31 33 -396 0
31 -33 -396 0
-31 -33 396 0
-37 39 397 0
37 39 -397 0
-37 -39 -397 0
37 -39 397 0
41 -44 398 0
-41 -44 -398 0
41 44 -398 0
-41 44 398 0
46 -48 399 0
-46 -48 -399 0
46 48 -399 0
-46 48 399 0
386 -387 400 0
-386 -387 -400 0
386 387 -400 0
-386 387 400 0
388 -389 401 0
-388 -389 -401 0
388 389 -401 0
-388 389 401 0
390 -391 402 0
-390 -391 -402 0
390 391 -402 0
-390 391 402 0
392 -393 403 0
-392 -393 -403 0
392 393 -403 0
-392 393 403 0
394 -395 404 0
-394 -395 -404 0
394 395 -404 0
-394 395 404 0
396 -397 405 0
-396 -397 -405 0
396 397 -405 0
-396 397 405 0
398 -399 406 0
-398 -399 -406 0
398 399 -406 0
-398 399 406 0
400 -401 407 0
-400 -401 -407 0
400 401 -407 0
-400 401 407 0
402 -403 408 0
-402 -403 -408 0
402 403 -408 0
-402 403 408 0
404 -405 409 0
-404 -405 -409 0
404 405 -409 0
-404 405 409 0
406 -407 410 0
-406 -407 -410 0
406 407 -410 0
-406 407 410 0
408 -409 411 0
-408 -409 -411 0
408 409 -411 0
-408 409 411 0
410 411 0
-410 -411 0
1 -3 412 0
-1 -3 -412 0
1 3 -412 0
-1 3 412 0
-5 -6 413 0
5 -6 -413 0
-5 6 -413 0
5 6 413 0
-8 -9 414 0
8 -9 -414 0
-8 9 -414 0
8 9 414 0
-11 13 415 0
11 13 -415 0
-11 -13 -415 0
11 -13 415 0
-14 17 416 0
14 17 -416 0
-14 -17 -416 0
14 -17 416 0
20 21 417 0
-20 21 -417 0
20 -21 -417 0
-20 -21 417 0
24 -25 418 0
-24 -25 -418 0
24 25 -418 0
-24 25 418 0
26 28 419 0
-26 28 -419 0
26 -28 -419 0
-26 -28 419 0
-29 -31 420 0
29 -31 -420 0
-29 31 -420 0
29 31 420 0
33 34 421 0
-33 34 -421 0
33 -34 -421 0
-33 -34 421 0
35 -38 422 0
-35 -38 -422 0
35 38 -422 0
-35 38 422 0
-39 41 423 0
39 41 -423 0
-39 -41 -423 0
39 -41 423 0
-44 -45 424 0
44 -45 -424 0
-44 45 -424 0
44 45 424 0
-46 -47 425 0
46 -47 -425 0
-46 47 -425 0
46 47 425 0
412 -413 426 0
-412 -413 -426 0
412 413 -426 0
-412 413 426 0
414 -415 427 0
-414 -415 -427 0
414 415 -427 0
-414 415 427 0
416 -417 428 0
-416 -417 -428 0
416 417 -428 0
-416 417 428 0
418 -419 429 0
-418 -419 -429 0
418 419 -429 0
-418 419 429 0
420 -421 430 0
-420 -421 -430 0
420 421 -430 0
-420 421 430 0
422 -423 431 0
-422 -423 -431 0
422 423 -431 0
-422 423 431 0
424 -425 432 0
-424 -425 -432 0
424 425 -432 0
-424 425 432 0
426 -427 433 0
-426 -427 -433 0
426 427 -433 0
-426 427 433 0
428 -429 434 0
-428 -429 -434 0
428 429 -434 0
-428 429 434 0
430 -431 435 0
-430 -431 -435 0
430 431 -435 0
-430 431 435 0
432 -433 436 0
-432 -433 -436 0
432 433 -436 0
-432 433 436 0
434 -435 437 0
-434 -435 -437 0
434 435 -437 0
-434 435 437 0
436 437 0
-436 -437 0
1 4 438 0
-1 4 -438 0
1 -4 -438 0
-1 -4 438 0
6 -9 439 0
-6 -9 -439 0
6 9 -439 0
-6 9 439 0
-10 11 440 0
10 11 -440 0
-10 -11 -440 0
10 -11 440 0
18 19 441 0
-18 19 -441 0
18 -19 -441 0
-18 -19 441 0
-22 27 442 0
22 27 -442 0
-22 -27 -442 0
22 -27 442 0
-28 29 443 0
28 29 -443 0
-28 -29 -443 0
28 -29 443 0
31 32 444 0
-31 32 -444 0
31 -32 -444 0
-31 -32 444 0
33 -36 445 0
-33 -36 -445 0
33 36 -445 0
-33 36 445 0
41 -42 446 0
-41 -42 -446 0
41 42 -446 0
-41 42 446 0
-43 46 447 0
43 46 -447 0
-43 -46 -447 0
43 -46 447 0
437 -438 448 0
-437 -438 -448 0
437 438 -448 0
-437 438 448 0
439 -440 449 0
-439 -440 -449 0
439 440 -449 0
-439 440 449 0
441 -442 450 0
-441 -442 -450 0
441 442 -450 0
-441 442 450 0
443 -444 451 0
-443 -444 -451 0
443 444 -451 0
-443 444 451 0
445 -446 452 0
-445 -446 -452 0
445 446 -452 0
-445 446 452 0
447 -448 453 0
-447 -448 -453 0
447 448 -453 0
-447 448 453 0
449 -450 454 0
-449 -450 -454 0
449 450 -454 0
-449 450 454 0
451 -452 455 0
-451 -452 -455 0
451 452 -455 0
-451 452 455 0
-453 -454 455 0
453 -454 -455 0
-453 454 -455 0
453 454 455 0
1 -4 456 0
-1 -4 -456 0
1 4 -456 0
-1 4 456 0
5 8 457 0
-5 8 -457 0
5 -8 -457 0
-5 -8 457 0
-10 12 458 0
10 12 -458 0
-10 -12 -458 0
10 -12 458 0
-13 14 459 0
13 14 -459 0
-13 -14 -459 0
13 -14 459 0
-15 -18 460 0
15 -18 -460 0
-15 18 -460 0
15 18 460 0
-19 -21 461 0
19 -21 -461 0
-19 21 -461 0
19 21 461 0
23 25 462 0
-23 25 -462 0
23 -25 -462 0
-23 -25 462 0
29 30 463 0
-29 30 -463 0
29 -30 -463 0
-29 -30 463 0
32 -34 464 0
-32 -34 -464 0
32 34 -464 0
-32 34 464 0
37 -38 465 0
-37 -38 -465 0
37 38 -465 0
-37 38 465 0
41 42 466 0
-41 42 -466 0
41 -42 -466 0
-41 -42 466 0
44 -46 467 0
-44 -46 -467 0
44 46 -467 0
-44 46 467 0
48 -50 468 0
-48 -50 -468 0
48 50 -468 0
-48 50 468 0
456 -457 469 0
-456 -457 -469 0
456 457 -469 0
-456 457 469 0
458 -459 470 0
-458 -459 -470 0
458 459 -470 0
-458 459 470 0
460 -461 471 0
-460 -461 -471 0
460 461 -471 0
-460 461 471 0
462 -463 472 0
-462 -463 -472 0
462 463 -472 0
-462 463 472 0
464 -465 473 0
-464 -465 -473 0
464 465 -473 0
-464 465 473 0
466 -467 474 0
-466 -467 -474 0
466 467 -474 0
-466 467 474 0
468 -469 475 0
-468 -469 -475 0
468 469 -475 0
-468 469 475 0
470 -471 476 0
-470 -471 -476 0
470 471 -476 0
-470 471 476 0
472 -473 477 0
-472 -473 -477 0
472 473 -477 0
-472 473 477 0
474 -475 478 0
-474 -475 -478 0
474 475 -478 0
-474 475 478 0
476 -477 479 0
-476 -477 -479 0
476 477 -479 0
-476 477 479 0
478 479 0
-478 -479 0
2 -3 480 0
-2 -3 -480 0
2 3 -480 0
-2 3 480 0
5 -8 481 0
-5 -8 -481 0
5 8 -481 0
-5 8 481 0
12 -13 482 0
-12 -13 -482 0
12 13 -482 0
-12 13 482 0
17 -18 483 0
-17 -18 -483 0
17 18 -483 0
-17 18 483 0
21 -23 484 0
-21 -23 -484 0
21 23 -484 0
-21 23 484 0
26 -29 485 0
-26 -29 -485 0
26 29 -485 0
-26 29 485 0
30 -32 486 0
-30 -32 -486 0
30 32 -486 0
-30 32 486 0
33 39 487 0
-33 39 -487 0
33 -39 -487 0
-33 -39 487 0
44 45 488 0
-44 45 -488 0
44 -45 -488 0
-44 -45 488 0
479 -480 489 0
-479 -480 -489 0
479 480 -489 0
-479 480 489 0
481 -482 490 0
-481 -482 -490 0
481 482 -490 0
-481 482 490 0
483 -484 491 0
-483 -484 -491 0
483 484 -491 0
-483 484 491 0
485 -486 492 0
-485 -486 -492 0
485 486 -492 0
-485 486 492 0
487 -488 493 0
-487 -488 -493 0
487 488 -493 0
-487 488 493 0
489 -490 494 0
-489 -490 -494 0
489 490 -494 0
-489 490 494 0
491 -492 495 0
-491 -492 -495 0
491 492 -495 0
-491 492 495 0
-493 -494 495 0
493 -494 -495 0
-493 494 -495 0
493 494 495 0
